483 5
10 10 10 10 10 

0 0 0 0 0 0 3 2 14 26 
0 0 0 0 0 0 3 3 8 9 
9 1 0 0 0 0 2 12 4 
7 1 0 0 0 0 1 5 
5 2 0 0 0 0 1 6 
8 3 0 0 0 0 1 7 
7 3 0 0 0 0 1 10 
8 2 0 0 0 0 1 10 
1 2 0 0 0 0 1 10 
8 2 0 0 0 0 1 11 
4 6 0 0 0 0 2 13 479 
6 3 0 0 0 0 1 13 
0 0 0 0 0 0 1 38 
0 0 0 0 0 0 2 15 17 
6 1 0 0 0 0 1 16 
2 3 0 0 0 0 3 24 18 181 
5 1 0 0 0 0 2 24 21 
7 2 0 0 0 0 1 19 
2 3 0 0 0 0 1 20 
3 5 0 0 0 0 1 22 
5 3 0 0 0 0 1 22 
2 2 0 0 0 0 1 23 
10 2 0 0 0 0 1 25 
6 3 0 0 0 0 1 25 
0 0 0 0 0 0 1 38 
0 0 0 0 0 0 2 27 36 
4 1 0 0 0 0 2 28 214 
7 3 0 0 0 0 1 29 
4 4 0 0 0 0 2 35 30 
2 2 0 0 0 0 1 31 
3 1 0 0 0 0 2 34 32 
2 2 0 0 0 0 1 33 
9 3 0 0 0 0 1 37 
10 3 0 0 0 0 1 37 
1 2 0 0 0 0 1 37 
10 4 0 0 0 0 1 37 
0 0 0 0 0 0 1 38 
0 0 0 0 0 0 5 39 81 93 135 177 
0 0 0 0 0 0 3 40 43 45 
9 0 1 1 1 1 1 41 
10 0 3 2 2 4 1 42 
4 0 6 7 2 1 1 44 
10 0 2 3 2 3 1 44 
2 0 2 4 3 3 1 46 
7 0 3 2 2 1 1 46 
7 0 2 1 3 2 1 47 
5 0 1 3 5 6 1 48 
2 0 4 1 1 5 2 51 49 
4 0 6 2 2 6 1 50 
8 0 1 3 2 3 1 52 
10 0 2 4 4 1 1 52 
2 0 2 5 4 2 1 53 
4 0 3 1 5 1 1 54 
6 0 2 4 2 2 1 55 
8 0 1 1 3 3 2 58 56 
8 0 3 3 3 1 2 62 57 
1 0 3 3 3 1 1 59 
5 0 3 3 1 5 4 79 66 61 252 
5 0 2 3 3 4 2 79 60 
8 0 1 2 1 5 1 61 
7 0 1 4 2 4 1 63 
6 0 1 1 4 3 1 63 
1 0 3 2 2 2 1 64 
9 0 2 2 5 3 1 65 
6 0 3 5 2 3 3 75 73 67 
9 0 3 1 2 1 2 75 67 
3 0 3 2 1 2 1 68 
8 0 2 3 3 3 2 78 69 
8 0 2 1 2 1 1 70 
5 0 2 2 4 3 1 71 
2 0 3 1 2 2 1 72 
6 0 4 3 1 1 1 74 
9 0 3 5 1 1 1 74 
8 0 3 1 2 1 1 76 
7 0 1 2 5 2 1 76 
1 0 4 1 1 2 1 77 
4 0 2 3 2 1 1 80 
1 0 2 1 2 4 1 80 
1 0 3 2 3 1 1 80 
0 0 0 0 0 0 1 483 
0 0 0 0 0 0 3 82 83 85 
4 0 0 1 0 0 2 84 418 
4 0 0 6 0 0 1 84 
7 0 0 2 0 0 2 89 86 
5 0 0 3 0 0 2 89 87 
7 0 0 3 0 0 1 87 
3 0 0 1 0 0 1 88 
5 0 0 1 0 0 1 90 
5 0 0 2 0 0 1 90 
9 0 0 3 0 0 1 91 
4 0 0 3 0 0 1 92 
0 0 0 0 0 0 5 219 251 283 295 327 
0 0 0 0 0 0 3 94 102 109 
1 0 1 1 1 1 1 95 
2 0 3 1 2 3 1 96 
1 0 3 4 3 2 1 97 
9 0 2 3 1 5 1 98 
2 0 3 2 2 2 2 108 99 
8 0 2 2 3 2 1 100 
10 0 3 1 2 5 1 101 
1 0 2 2 2 1 1 103 
3 0 4 2 1 6 1 103 
4 0 3 3 3 4 1 104 
7 0 2 2 1 3 1 105 
6 0 2 2 3 4 1 106 
10 0 3 4 5 2 2 124 107 
10 0 3 4 3 4 3 133 110 388 
3 0 1 3 1 3 2 133 110 
3 0 5 5 1 1 4 132 124 123 112 
5 0 2 2 1 2 2 123 111 
7 0 2 1 4 4 2 132 112 
6 0 3 3 3 1 1 113 
8 0 2 2 2 2 1 114 
6 0 4 2 2 2 1 115 
7 0 1 6 4 3 2 129 116 
3 0 1 1 6 2 3 131 130 117 
10 0 3 2 2 2 1 118 
9 0 1 2 6 2 1 119 
9 0 4 1 3 3 1 120 
10 0 3 3 3 1 1 121 
8 0 3 2 2 3 1 122 
9 0 3 3 2 1 1 125 
3 0 4 2 6 5 1 125 
3 0 5 1 3 1 2 129 127 
5 0 1 3 1 1 1 126 
6 0 4 2 1 2 1 127 
6 0 2 2 3 2 1 128 
10 0 1 4 1 1 1 134 
8 0 1 1 1 2 1 134 
4 0 1 1 3 2 1 134 
9 0 3 6 4 3 1 134 
3 0 2 4 2 3 1 134 
5 0 2 3 1 2 1 134 
0 0 0 0 0 0 1 483 
0 0 0 0 0 0 3 136 144 151 
7 1 1 1 1 0 1 137 
8 5 3 2 2 0 2 138 460 
4 2 1 3 1 0 1 139 
7 3 4 4 4 0 1 140 
7 2 1 2 1 0 2 150 141 
1 1 1 2 4 0 1 142 
3 1 4 2 2 0 1 143 
7 2 2 1 3 0 1 145 
7 4 2 5 2 0 1 145 
1 3 3 5 6 0 1 146 
7 2 3 3 3 0 1 147 
10 2 2 2 4 0 1 148 
1 1 1 3 2 0 2 164 149 
7 4 2 3 4 0 2 175 152 
1 1 5 2 2 0 2 175 152 
5 2 2 1 3 0 3 166 164 153 
7 3 2 2 4 0 2 166 153 
10 2 2 2 2 0 2 174 154 
2 6 4 2 2 0 1 155 
2 2 3 5 2 0 1 156 
1 3 1 3 1 0 1 157 
1 2 4 2 5 0 2 171 158 
5 2 1 2 2 0 3 173 172 159 
9 4 3 4 3 0 1 160 
9 3 6 2 1 0 1 161 
9 3 1 3 4 0 1 162 
7 2 5 7 2 0 1 163 
10 1 3 4 2 0 1 165 
7 3 2 1 2 0 2 171 168 
2 1 3 3 1 0 1 167 
2 2 4 1 1 0 1 167 
4 1 4 2 6 0 1 168 
2 2 3 1 1 0 1 169 
4 4 3 1 4 0 1 170 
9 3 2 4 2 0 1 176 
1 4 3 1 2 0 1 176 
6 3 1 2 1 0 1 176 
1 2 1 2 1 0 1 176 
9 3 1 1 2 0 1 176 
7 3 1 2 3 0 1 176 
0 0 0 0 0 0 1 483 
0 0 0 0 0 0 3 178 186 192 
4 1 1 1 1 0 1 179 
9 2 3 3 2 0 1 180 
10 1 2 3 2 0 1 181 
9 1 4 3 3 0 1 182 
10 1 1 2 2 0 2 191 183 
8 7 3 2 2 0 1 184 
10 1 3 2 1 0 1 185 
6 2 3 3 1 0 1 187 
10 5 3 2 2 0 1 187 
3 4 3 4 1 0 1 188 
1 4 2 5 1 0 1 189 
2 2 2 3 6 0 1 190 
3 3 1 2 3 0 2 204 193 
5 3 1 2 2 0 2 204 193 
5 1 2 2 3 0 2 204 193 
6 2 3 2 3 0 2 217 194 
5 2 1 3 2 0 2 207 195 
6 1 4 4 1 0 2 216 196 
9 2 2 1 2 0 1 197 
3 5 1 4 3 0 1 198 
4 3 2 1 5 0 1 199 
9 2 3 4 3 0 2 213 200 
3 2 4 5 6 0 3 215 214 201 
6 4 1 1 2 0 2 202 454 
10 2 3 2 2 0 1 203 
1 3 4 3 5 0 1 205 
9 2 5 2 1 0 2 213 208 
4 2 2 2 2 0 1 206 
8 3 4 3 2 0 1 208 
5 3 2 1 2 0 1 208 
3 2 3 1 4 0 1 209 
3 2 2 1 2 0 1 210 
7 3 3 1 3 0 1 211 
2 2 1 6 3 0 1 212 
7 3 2 3 3 0 1 218 
9 1 3 2 1 0 1 218 
4 1 2 3 4 0 1 218 
3 4 4 1 2 0 1 218 
9 2 3 1 1 0 1 218 
1 4 2 4 4 0 1 218 
0 0 0 0 0 0 1 483 
0 0 0 0 0 0 2 220 249 
3 0 1 0 1 1 1 221 
7 0 1 0 3 2 2 248 222 
5 0 3 0 3 2 2 247 223 
5 0 2 0 3 4 2 246 224 
9 0 1 0 4 2 2 245 225 
7 0 2 0 2 4 3 244 243 226 
7 0 3 0 2 3 1 227 
2 0 6 0 4 5 1 228 
4 0 4 0 1 4 1 229 
5 0 2 0 3 1 2 230 291 
5 0 3 0 1 1 1 231 
3 0 3 0 1 1 2 242 232 
2 0 1 0 4 2 1 233 
8 0 3 0 5 1 1 234 
8 0 2 0 1 2 1 235 
10 0 3 0 2 5 1 236 
4 0 2 0 1 4 1 237 
7 0 1 0 2 3 1 238 
10 0 3 0 2 2 1 239 
3 0 4 0 1 2 1 240 
2 0 1 0 3 5 1 241 
4 0 4 0 5 2 1 250 
1 0 2 0 3 2 1 250 
9 0 3 0 1 1 1 250 
1 0 1 0 2 3 1 250 
8 0 1 0 3 4 1 250 
3 0 4 0 2 2 1 250 
9 0 3 0 4 2 1 250 
3 0 2 0 2 2 1 250 
10 0 4 0 4 1 1 250 
0 0 0 0 0 0 1 483 
0 0 0 0 0 0 2 252 281 
10 1 0 1 1 0 1 253 
8 3 0 3 4 0 1 254 
6 2 0 4 2 0 1 255 
8 3 0 4 1 0 1 256 
4 2 0 1 6 0 2 280 257 
8 2 0 2 2 0 1 258 
10 2 0 2 3 0 3 279 259 311 
5 1 0 2 5 0 4 278 277 265 260 
6 3 0 2 3 0 1 261 
10 3 0 3 1 0 2 268 262 
10 2 0 2 3 0 1 263 
2 3 0 5 2 0 1 264 
10 1 0 3 3 0 2 276 266 
2 4 0 3 3 0 2 276 269 
6 3 0 2 5 0 1 267 
6 3 0 3 1 0 1 269 
8 2 0 3 2 0 1 269 
5 4 0 3 2 0 1 270 
6 3 0 3 3 0 1 271 
3 4 0 3 1 0 1 272 
10 4 0 2 4 0 1 273 
1 1 0 2 2 0 1 274 
2 1 0 1 3 0 1 275 
1 2 0 4 1 0 1 282 
3 3 0 1 2 0 1 282 
3 3 0 1 3 0 1 282 
7 3 0 3 2 0 1 282 
1 1 0 4 1 0 1 282 
6 3 0 2 3 0 1 282 
9 3 0 1 1 0 1 282 
0 0 0 0 0 0 1 483 
0 0 0 0 0 0 1 284 
4 0 0 0 0 1 2 293 285 
3 0 0 0 0 2 2 290 286 
5 0 0 0 0 3 1 287 
2 0 0 0 0 2 1 288 
7 0 0 0 0 5 2 292 289 
8 0 0 0 0 2 1 291 
4 0 0 0 0 3 1 291 
6 0 0 0 0 1 1 294 
3 0 0 0 0 5 2 294 369 
2 0 0 0 0 1 1 294 
0 0 0 0 0 0 5 359 381 403 425 447 
0 0 0 0 0 0 3 296 324 325 
9 0 1 1 0 1 2 323 297 
5 0 3 3 0 5 1 298 
5 0 4 3 0 3 2 322 299 
4 0 2 2 0 1 1 300 
1 0 2 2 0 2 4 321 320 319 301 
2 0 3 1 0 1 1 302 
8 0 3 3 0 3 1 303 
5 0 4 4 0 2 1 304 
6 0 4 2 0 4 1 305 
10 0 2 4 0 1 1 306 
5 0 4 2 0 4 2 307 347 
6 0 2 1 0 2 2 318 308 
3 0 2 4 0 2 1 309 
5 0 2 2 0 5 1 310 
6 0 2 1 0 3 1 311 
10 0 4 3 0 2 1 312 
2 0 3 3 0 5 1 313 
5 0 1 4 0 1 1 314 
1 0 6 5 0 2 1 315 
6 0 4 2 0 3 1 316 
7 0 4 2 0 2 1 317 
7 0 1 3 0 2 1 326 
4 0 1 1 0 6 1 326 
7 0 3 3 0 2 1 326 
6 0 1 3 0 1 1 326 
7 0 1 1 0 1 1 326 
2 0 2 3 0 1 1 326 
10 0 1 3 0 4 1 326 
6 0 2 3 0 3 1 326 
9 0 1 1 0 1 1 326 
0 0 0 0 0 0 1 483 
0 0 0 0 0 0 2 328 333 
5 1 0 0 1 1 1 329 
3 5 0 0 3 5 1 330 
5 1 0 0 1 1 2 332 331 
10 2 0 0 2 3 1 334 
2 2 0 0 2 3 1 334 
6 3 0 0 4 1 2 334 430 
9 1 0 0 1 2 2 338 335 
1 3 0 0 3 3 2 341 336 
1 4 0 0 2 3 1 337 
4 2 0 0 3 1 2 345 339 
5 3 0 0 1 3 2 341 339 
1 5 0 0 1 3 1 340 
3 4 0 0 4 2 2 347 342 
9 4 0 0 3 3 2 347 342 
2 2 0 0 2 5 1 343 
1 1 0 0 1 1 2 355 344 
8 1 0 0 2 4 2 352 346 
10 3 0 0 2 3 3 355 352 350 
5 2 0 0 1 2 1 348 
2 4 0 0 4 2 1 348 
9 4 0 0 5 3 1 349 
10 1 0 0 5 1 1 350 
7 2 0 0 2 3 1 351 
9 2 0 0 4 3 1 353 
10 2 0 0 1 1 1 353 
8 1 0 0 2 2 1 354 
6 2 0 0 4 3 1 356 
5 4 0 0 4 3 1 356 
6 1 0 0 2 3 1 357 
1 3 0 0 3 2 1 358 
0 0 0 0 0 0 1 483 
0 0 0 0 0 0 2 360 364 
10 0 1 1 0 0 1 361 
5 0 2 2 0 0 1 362 
3 0 3 3 0 0 1 363 
10 0 3 3 0 0 2 368 365 
1 0 5 2 0 0 2 368 365 
7 0 1 4 0 0 1 366 
4 0 1 2 0 0 2 367 476 
9 0 2 1 0 0 2 375 369 
8 0 2 1 0 0 1 369 
7 0 2 2 0 0 1 370 
4 0 1 3 0 0 2 373 371 
7 0 1 2 0 0 1 372 
9 0 3 3 0 0 2 379 374 
10 0 5 3 0 0 2 379 376 
9 0 4 3 0 0 1 376 
5 0 4 3 0 0 1 376 
10 0 1 3 0 0 1 377 
5 0 4 2 0 0 1 378 
10 0 1 5 0 0 1 380 
1 0 4 2 0 0 1 380 
0 0 0 0 0 0 1 483 
0 0 0 0 0 0 2 382 384 
8 0 1 1 0 0 1 383 
5 0 4 3 0 0 2 388 385 
2 0 4 1 0 0 2 388 386 
2 0 4 1 0 0 2 390 386 
3 0 1 2 0 0 1 387 
2 0 3 4 0 0 2 393 389 
10 0 2 3 0 0 2 390 389 
4 0 1 2 0 0 1 391 
8 0 1 3 0 0 1 391 
9 0 2 2 0 0 1 392 
1 0 3 4 0 0 1 394 
10 0 1 2 0 0 1 394 
5 0 1 2 0 0 1 395 
3 0 2 2 0 0 1 396 
4 0 3 2 0 0 1 397 
7 0 3 6 0 0 2 401 398 
3 0 5 2 0 0 1 399 
1 0 1 1 0 0 1 400 
3 0 3 4 0 0 1 402 
10 0 5 3 0 0 1 402 
0 0 0 0 0 0 1 483 
0 0 0 0 0 0 2 404 415 
6 0 0 1 0 1 2 408 405 
2 0 0 2 0 1 1 406 
5 0 0 1 0 1 1 407 
1 0 0 3 0 2 2 413 409 
3 0 0 4 0 3 2 413 409 
7 0 0 3 0 1 1 410 
7 0 0 4 0 1 2 419 411 
4 0 0 2 0 2 1 412 
3 0 0 2 0 4 1 414 
10 0 0 3 0 4 1 414 
7 0 0 3 0 5 2 423 416 
7 0 0 2 0 2 1 416 
8 0 0 2 0 3 1 417 
10 0 0 4 0 3 1 418 
6 0 0 1 0 3 1 420 
9 0 0 2 0 1 1 420 
3 0 0 3 0 4 1 421 
6 0 0 3 0 4 1 422 
5 0 0 2 0 3 1 424 
4 0 0 3 0 2 1 424 
0 0 0 0 0 0 1 483 
0 0 0 0 0 0 1 426 
1 1 0 0 0 1 2 432 427 
9 4 0 0 0 3 1 428 
3 5 0 0 0 2 1 429 
7 4 0 0 0 3 2 436 430 
8 3 0 0 0 3 1 431 
4 3 0 0 0 4 2 438 433 
3 3 0 0 0 3 2 438 434 
4 2 0 0 0 2 1 434 
5 2 0 0 0 2 2 442 435 
9 1 0 0 0 2 1 437 
6 3 0 0 0 2 1 438 
2 1 0 0 0 2 2 443 439 
2 2 0 0 0 3 2 442 439 
1 2 0 0 0 4 1 440 
9 3 0 0 0 1 1 441 
10 3 0 0 0 2 1 444 
4 2 0 0 0 2 1 444 
3 2 0 0 0 3 1 444 
2 3 0 0 0 4 1 445 
5 1 0 0 0 2 1 446 
0 0 0 0 0 0 1 483 
0 0 0 0 0 0 2 448 449 
5 0 0 1 0 0 2 457 450 
7 0 0 1 0 0 2 457 452 
5 0 0 2 0 0 1 451 
2 0 0 2 0 0 1 453 
1 0 0 5 0 0 1 453 
7 0 0 3 0 0 1 454 
3 0 0 4 0 0 1 455 
4 0 0 4 0 0 1 456 
10 0 0 2 0 0 1 458 
1 0 0 1 0 0 1 458 
0 0 0 0 0 0 2 459 471 
0 0 0 0 0 0 3 460 464 468 
1 0 1 0 0 0 2 466 461 
2 0 2 0 0 0 1 462 
9 0 2 0 0 0 1 463 
4 0 3 0 0 0 1 465 
4 0 5 0 0 0 1 465 
7 0 3 0 0 0 1 467 
2 0 1 0 0 0 1 467 
10 0 2 0 0 0 1 469 
5 0 1 0 0 0 1 469 
7 0 5 0 0 0 1 470 
0 0 0 0 0 0 1 483 
0 0 0 0 0 0 2 472 473 
6 0 0 0 0 1 2 476 474 
3 0 0 0 0 2 2 476 475 
8 0 0 0 0 2 1 475 
9 0 0 0 0 4 1 477 
6 0 0 0 0 2 1 477 
6 0 0 0 0 4 2 479 478 
4 0 0 0 0 2 1 480 
1 0 0 0 0 3 1 480 
2 0 0 0 0 2 1 481 
5 0 0 0 0 3 1 482 
0 0 0 0 0 0 1 483 
0 0 0 0 0 0 0 
